p cnf 10 18
7 10 -8 -9 3 0
-7 -9 3 -1 0
8 -2 9 3 -1 -6 -5 -7 10 4 0
10 6 -9 5 -1 7 -8 0
-1 -8 -3 7 -9 5 0
3 8 4 0
-3 -9 4 0
3 -7 1 -6 -8 -5 0
1 10 0
1 2 -5 0
-10 4 0
-5 7 0
8 -4 2 10 6 5 0
-5 -3 0
6 -3 9 2 7 5 4 -10 1 8 0
9 -3 -8 4 6 -10 -7 2 0
4 6 3 -10 0
-3 1 -6 0
